unsat
(:cnf-encoding-aux-vars 142
 :elim-unconstrained    4
 :max-memory            19.60
 :memory                18.94
 :nlsat-arith-var       22
 :nlsat-atoms           256
 :nlsat-bool-var        173
 :nlsat-clauses         739
 :nlsat-conflicts       12
 :nlsat-decisions       71
 :nlsat-propagations    156
 :num-allocs            374293
 :rlimit-count          79372
 :solve-eqs-elim-vars   129
 :solve-eqs-steps       437
 :time                  0.02
 :total-time            0.04)
